
Gurobi 13.0.0 (mac64[arm]) logging started Sun Dec  7 08:30:34 2025

Set parameter LogFile to value "/Users/jjung404/PyProjects/qiga/data/steiner-opt/SP/oddwheel3_log.txt"
Set parameter OutputFlag to value 1
Gurobi Optimizer version 13.0.0 build v13.0.0rc1 (mac64[arm] - Darwin 24.6.0 24G325)

CPU model: Apple M3
Thread count: 8 physical cores, 8 logical processors, using up to 8 threads

Optimize a model with 29 rows, 27 columns and 81 nonzeros (Min)
Model fingerprint: 0x6c95d5eb
Model has 9 linear objective coefficients
Variable types: 18 continuous, 9 integer (9 binary)
Coefficient statistics:
  Matrix range     [1e+00, 3e+00]
  Objective range  [1e+00, 1e+00]
  Bounds range     [1e+00, 1e+00]
  RHS range        [1e+00, 3e+00]
Presolve removed 4 rows and 3 columns
Presolve time: 0.00s
Presolved: 25 rows, 24 columns, 73 nonzeros
Variable types: 15 continuous, 9 integer (9 binary)
Found heuristic solution: objective 9.0000000
Found heuristic solution: objective 8.0000000
Found heuristic solution: objective 7.0000000
Found heuristic solution: objective 6.0000000

Root relaxation: objective 4.000000e+00, 6 iterations, 0.00 seconds (0.00 work units)

    Nodes    |    Current Node    |     Objective Bounds      |     Work
 Expl Unexpl |  Obj  Depth IntInf | Incumbent    BestBd   Gap | It/Node Time

     0     0    4.00000    0    2    6.00000    4.00000  33.3%     -    0s
H    0     0                       5.0000000    4.00000  20.0%     -    0s
     0     0    4.00000    0    4    5.00000    4.00000  20.0%     -    0s

Cutting planes:
  Gomory: 1
  Implied bound: 2
  MIR: 6
  Flow cover: 4
  Flow path: 2
  Network: 3
  RLT: 1

Explored 1 nodes (12 simplex iterations) in 0.01 seconds (0.00 work units)
Thread count was 8 (of 8 available processors)

Solution count 5: 5 6 7 ... 9

Optimal solution found (tolerance 1.00e-04)
Best objective 5.000000000000e+00, best bound 5.000000000000e+00, gap 0.0000%
